p cnf 48 136
a 24 40 0
e 1 2 3 4 5 6 7 8 9 10 11 12 13 14 15 16 17 18 19 20 21 22 23 25 26 27 28 29 30 31 32 33 34 35 36 37 38 39 41 42 43 44 45 46 47 48 0
4 2 0
4 -3 0
-2 3 -4 0
6 -5 0
6 -3 0
5 3 -6 0
-7 4 0
-7 6 0
-4 -6 7 0
-9 -7 0
-9 -8 0
7 8 9 0
10 9 0
10 -8 0
-9 8 -10 0
-7 -10 -11 0
7 10 -11 0
-7 10 11 0
7 -10 11 0
-12 -1 0
-12 -11 0
1 11 12 0
-13 -12 0
-13 -7 0
12 7 13 0
14 -5 0
14 5 0
13 -14 -15 0
-13 14 -15 0
13 14 15 0
-13 -14 15 0
4 16 -17 0
-4 -16 -17 0
4 -16 17 0
-4 16 17 0
18 1 0
18 -3 0
-1 3 -18 0
19 -9 0
19 -18 0
9 18 -19 0
20 -5 -21 0
-20 5 -21 0
20 5 21 0
-20 -5 21 0
19 -21 -22 0
-19 21 -22 0
19 21 22 0
-19 -21 22 0
-17 22 -23 0
17 -22 -23 0
-17 -22 23 0
17 22 23 0
25 20 0
25 -24 0
-20 24 -25 0
26 -6 0
26 25 0
6 -25 -26 0
27 -4 0
27 9 0
4 -9 -27 0
28 -6 0
28 -10 0
6 10 -28 0
-27 -28 -29 0
27 28 -29 0
-27 28 29 0
27 -28 29 0
-30 -26 0
-30 29 0
26 -29 30 0
-32 30 0
-32 31 0
-30 -31 32 0
-33 -6 0
-33 10 0
6 -10 33 0
34 -32 0
34 33 0
32 -33 -34 0
36 3 0
36 35 0
-3 -35 -36 0
37 -34 0
37 36 0
34 -36 -37 0
-38 -23 0
-38 -37 0
23 37 38 0
39 26 0
39 -3 0
-26 3 -39 0
40 -31 0
40 -9 0
31 9 -40 0
-24 40 -41 0
24 -40 -41 0
-24 -40 41 0
24 40 41 0
-42 39 0
-42 41 0
-39 -41 42 0
-43 2 0
-43 2 0
-2 43 0
44 5 0
44 -7 0
-5 7 -44 0
-45 -43 0
-45 -44 0
43 44 45 0
42 45 -46 0
-42 -45 -46 0
42 -45 46 0
-42 45 46 0
38 -46 -47 0
-38 46 -47 0
38 46 47 0
-38 -46 47 0
-48 15 0
-48 -47 0
-15 47 48 0
-40 31 6 -15 -42 -7 0
29 -34 -12 37 40 -39 -44 0
11 47 44 0
-36 10 35 0
48 21 12 4 46 28 -25 0
-24 -26 -8 23 -35 14 17 0
-5 42 -41 15 -6 18 0
-36 30 32 -43 -22 -42 0
-47 -16 -10 -12 9 0
-33 14 5 -6 -21 -18 8 0
15 -18 6 23 0
17 -11 -24 2 0
48 0
